c ren 1 -> 1
c ren 2 -> 2
c ren 4 -> 3
c ren 6 -> 4
c ren 7 -> 5
c ren 9 -> 6
c ren 11 -> 7
c ren 12 -> 8
c ren 13 -> 9
c ren 15 -> 10
c ren 17 -> 11
c ren 18 -> 12
c ren 19 -> 13
c ren 20 -> 14
c ren 22 -> 15
c ren 23 -> 16
c ren 24 -> 17
c ren 26 -> 18
c ren 28 -> 19
c ren 29 -> 20
c ren 30 -> 21
c ren 32 -> 22
c ren 34 -> 23
c ren 35 -> 24
c ren 36 -> 25
c ren 37 -> 26
c ren 39 -> 27
c ren 40 -> 28
c ren 41 -> 29
c ren 42 -> 30
c ren 44 -> 31
c ren 45 -> 32
c ren 47 -> 33
c ren 49 -> 34
c ren 50 -> 35
c ren 52 -> 36
c ren 54 -> 37
c ren 55 -> 38
c ren 57 -> 39
c ren 59 -> 40
c ren 60 -> 41
c ren 61 -> 42
c ren 62 -> 43
c ren 64 -> 44
c ren 65 -> 45
c ren 66 -> 46
c ren 67 -> 47
c ren 69 -> 48
c ren 70 -> 49
c ren 71 -> 50
c ren 72 -> 51
c ren 74 -> 52
c ren 75 -> 53
c ren 76 -> 54
c ren 77 -> 55
c ren 79 -> 56
c ren 80 -> 57
c ren 81 -> 58
c ren 82 -> 59
c ren 84 -> 60
c ren 85 -> 61
c ren 86 -> 62
c ren 87 -> 63
c ren 89 -> 64
c ren 90 -> 65
c ren 92 -> 66
c ren 95 -> 67
c ren 97 -> 68
c ren 100 -> 69
c ren 102 -> 70
c ren 105 -> 71
c ren 107 -> 72
c ren 110 -> 73
c ren 112 -> 74
c ren 115 -> 75
c ren 117 -> 76
c ren 120 -> 77
c ren 122 -> 78
c ren 125 -> 79
c ren 127 -> 80
c ren 130 -> 81
c ren 132 -> 82
c ren 135 -> 83
c ren 137 -> 84
c ren 140 -> 85
c ren 142 -> 86
c ren 145 -> 87
c ren 147 -> 88
c ren 150 -> 89
c ren 151 -> 90
c ren 154 -> 91
c ren 155 -> 92
c ren 158 -> 93
c ren 159 -> 94
c ren 162 -> 95
c ren 164 -> 96
c ren 167 -> 97
c ren 171 -> 98
c ren 175 -> 99
c ren 180 -> 100
c ren 185 -> 101
c ren 189 -> 102
c ren 190 -> 103
c ren 192 -> 104
c ren 195 -> 105
c ren 197 -> 106
c ren 200 -> 107
c ren 202 -> 108
c ren 205 -> 109
c ren 206 -> 110
c ren 209 -> 111
c ren 211 -> 112
c ren 214 -> 113
c ren 216 -> 114
c ren 219 -> 115
c ren 221 -> 116
c ren 224 -> 117
c ren 226 -> 118
c ren 229 -> 119
c ren 231 -> 120
c ren 234 -> 121
c ren 236 -> 122
c ren 239 -> 123
c ren 241 -> 124
c ren 244 -> 125
c ren 246 -> 126
c ren 249 -> 127
c ren 251 -> 128
c ren 254 -> 129
c ren 256 -> 130
c ren 259 -> 131
c ren 261 -> 132
c ren 264 -> 133
c ren 265 -> 134
c ren 268 -> 135
c ren 270 -> 136
c ren 273 -> 137
c ren 278 -> 138
c ren 283 -> 139
c ren 288 -> 140
c ren 291 -> 141
c ren 296 -> 142
c ren 400 -> 143
c ren 401 -> 144
c ren 405 -> 145
c ren 406 -> 146
c ren 408 -> 147
c ren 409 -> 148
c ren 412 -> 149
c ren 413 -> 150
c ren 415 -> 151
c ren 416 -> 152
c ren 474 -> 153
c ren 482 -> 154
c ren 492 -> 155
c ren 494 -> 156
p cnf 156 700
a 1 2 4 5 8 9 12 16 17 20 21 24 28 32 35 38 41 45 49 53 57 61 65 67 69 71 73 75 77 79 81 83 85 87 89 91 93 95 97 98 99 100 101 103 105 107 109 111 113 115 117 119 121 123 125 127 129 131 133 135 137 138 139 140 142 0
e 3 6 7 10 11 13 14 15 18 19 22 23 25 26 27 29 30 31 33 34 36 37 39 40 42 43 44 46 47 48 50 51 52 54 55 56 58 59 60 62 63 64 66 68 70 72 74 76 78 80 82 84 86 88 90 92 94 96 102 104 106 108 110 112 114 116 118 120 122 124 126 128 130 132 134 136 141 143 144 145 146 147 148 149 150 151 152 153 154 155 156 0
-1 2 3 0
1 -2 3 0
-1 -2 -3 0
1 2 -3 0
-3 4 -5 8 -10 -14 16 -17 -20 21 24 28 32 -34 0
-3 4 -5 8 -10 -14 -16 17 20 -21 24 28 32 -34 0
-3 4 -5 -8 -10 -14 -16 17 20 -21 24 28 -32 -34 0
-3 -4 5 -10 -14 16 -17 20 -21 24 28 32 -34 0
-3 4 -5 -8 -10 -14 16 -17 -20 21 24 28 -32 -34 0
6 21 69 0
-5 -6 -7 -11 -13 -15 -17 -18 -19 -21 -22 -23 -25 -26 -27 -29 -30 -31 -93 97 98 99 100 -101 -143 -144 -145 -146 149 -151 -152 -153 -154 -155 -156 0
-8 9 10 0
8 -9 10 0
-8 -9 -10 0
8 9 -10 0
10 34 0
38 65 155 0
13 -38 -69 -75 0
4 -12 -14 0
-4 -8 -12 14 0
13 69 75 0
-4 -8 12 -14 0
8 12 14 0
8 -12 -14 0
4 12 14 0
14 34 0
53 65 155 0
13 38 75 0
16 17 34 0
-13 38 -75 0
-3 -4 5 8 -10 -14 -16 17 -20 21 -24 28 32 -34 0
-3 -4 5 -10 12 -14 -16 17 -20 21 -24 28 32 -34 0
-16 -17 34 0
-13 -38 -69 75 0
5 -6 -7 -11 -13 -15 -17 -18 -19 -21 -22 -23 -25 -26 -27 -29 -30 -31 97 98 99 100 101 -143 -144 -145 -146 149 -151 -152 -153 -154 -155 -156 0
-15 -45 -69 77 0
-15 45 -77 0
20 21 34 0
-3 -4 5 -10 -14 -16 17 20 -21 24 28 32 -34 0
15 -45 -69 -77 0
-38 -53 65 -155 0
-15 69 -77 0
11 31 0
-3 -4 5 -10 -14 16 -17 -20 21 24 28 32 -34 0
13 31 0
-3 4 -5 8 -10 -14 16 -17 20 -21 24 28 32 -34 0
-38 -53 -65 155 0
15 31 0
-3 -5 -8 -10 12 -14 -16 17 -20 21 -24 28 -32 -34 0
53 -65 -155 0
-3 4 -5 8 -10 -14 -16 17 -20 21 -24 28 32 -34 0
17 -18 -79 0
-13 69 -75 0
-16 -20 24 34 0
15 69 77 0
-12 -24 28 34 0
16 -24 34 0
3 34 0
-3 5 -10 -12 -14 -16 17 -20 21 -24 -28 32 -34 0
-20 -21 34 0
12 -28 34 0
-17 18 -21 -79 0
5 -32 34 0
20 -24 34 0
21 60 133 0
8 -32 34 0
-5 -8 32 34 0
17 60 133 0
15 45 77 0
24 -28 34 0
31 -149 0
-17 -18 -21 79 0
24 -35 -36 0
-24 -32 -35 36 0
17 -60 -133 0
-24 -32 35 -36 0
32 35 36 0
32 -35 -36 0
24 35 36 0
36 102 0
-7 69 -71 0
18 31 0
4 -38 -39 0
-4 -9 -38 39 0
12 -19 -81 0
-4 -9 38 -39 0
9 38 39 0
9 -38 -39 0
4 38 39 0
39 102 0
5 17 21 34 -36 -39 -43 -47 -51 -55 -59 -63 -66 -68 -70 -72 -74 -76 -78 -80 -82 -84 -86 -88 -90 -94 -95 -96 -97 -98 -99 -100 101 -102 0
-12 -19 -79 81 0
24 -41 -43 0
-24 -38 -41 43 0
19 79 81 0
-24 -38 41 -43 0
38 41 43 0
38 -41 -43 0
24 41 43 0
43 102 0
-17 -21 34 -36 -39 -43 -47 -51 -55 -59 -63 -66 -68 -70 -72 -74 -76 -78 -80 -82 -84 -86 -88 -90 -92 93 -94 -96 97 98 99 100 101 -102 0
12 19 81 0
5 -45 -47 0
-5 -9 -45 47 0
9 109 110 0
-5 -9 45 -47 0
5 109 110 0
5 -109 -110 0
-5 -9 -109 110 0
47 102 0
-5 17 21 34 -36 -39 -43 -47 -51 -55 -59 -63 -66 -68 -70 -72 -74 -76 -78 -80 -82 -84 -86 -88 -90 -92 -93 -94 95 -97 -98 -99 100 -101 -102 0
19 31 0
24 -49 -51 0
-24 -45 -49 51 0
-22 32 -83 0
-24 -45 49 -51 0
45 49 51 0
45 -49 -51 0
24 49 51 0
51 102 0
5 17 21 34 -36 -39 -43 -47 -51 -55 -59 -63 -66 -68 -70 -72 -74 -76 -78 -80 -82 -84 -86 -88 -90 -92 -94 95 -96 -97 -98 -99 100 101 -102 0
-22 -32 -79 83 0
17 -53 -55 0
-17 -20 -53 55 0
22 79 83 0
-17 -20 53 -55 0
20 53 55 0
20 -53 -55 0
17 53 55 0
55 102 0
17 21 34 -36 -39 -43 -47 -51 -55 -59 -63 -66 -68 -70 -72 -74 -76 -78 -80 -82 -84 -86 -88 -90 -92 93 -94 -96 -97 -98 -99 100 101 -102 0
22 32 83 0
12 -57 -59 0
-12 -53 -57 59 0
22 31 0
-12 -53 57 -59 0
53 57 59 0
53 -57 -59 0
12 57 59 0
64 -91 -113 -142 0
59 102 0
-5 17 -21 34 -36 -39 -43 -47 -51 -55 -59 -63 -66 -68 -70 -72 -74 -76 -78 -80 -82 -84 -86 -88 -90 -92 -93 -94 -96 -97 98 99 100 -101 -102 0
23 -38 -79 -85 0
32 -61 -63 0
-32 -53 -61 63 0
-23 -38 -79 85 0
-32 -53 61 -63 0
53 61 63 0
53 -61 -63 0
32 61 63 0
63 102 0
5 17 -21 34 -36 -39 -43 -47 -51 -55 -59 -63 -66 -68 -70 -72 -74 -76 -78 -80 -82 -84 -86 -88 -90 -92 -94 -96 -97 98 99 100 101 -102 0
-23 79 -85 0
38 -65 -66 0
-38 -53 -65 66 0
23 38 85 0
-38 -53 65 -66 0
53 65 66 0
53 -65 -66 0
38 65 66 0
66 102 0
17 -21 34 -36 -39 -43 -47 -51 -55 -59 -63 -66 -68 -70 -72 -74 -76 -78 -80 -82 -84 -86 -88 -90 -92 93 -94 -96 -97 98 99 100 101 -102 0
9 -37 -109 0
45 -67 -68 0
-45 -53 -67 68 0
-25 45 -87 0
-45 -53 67 -68 0
53 67 68 0
53 -67 -68 0
45 67 68 0
68 102 0
-5 -17 21 34 -36 -39 -43 -47 -51 -55 -59 -63 -66 -68 -70 -72 -74 -76 -78 -80 -82 -84 -86 -88 -90 -92 -93 -94 -96 97 -98 99 100 -101 -102 0
-25 -45 -79 87 0
16 -69 -70 0
-16 -21 -69 70 0
25 79 87 0
-16 -21 69 -70 0
21 69 70 0
21 -69 -70 0
16 69 70 0
70 102 0
5 -17 21 34 -36 -39 -43 -47 -51 -55 -59 -63 -66 -68 -70 -72 -74 -76 -78 -80 -82 -84 -86 -88 -90 -92 -94 -96 97 -98 99 100 101 -102 0
25 45 87 0
12 -71 -72 0
-12 -69 -71 72 0
25 31 0
-12 -69 71 -72 0
69 71 72 0
69 -71 -72 0
12 71 72 0
72 102 0
-17 21 34 -36 -39 -43 -47 -51 -55 -59 -63 -66 -68 -70 -72 -74 -76 -78 -80 -82 -84 -86 -88 -90 -92 93 -94 -96 97 -98 99 100 101 -102 0
-2 26 89 0
32 -73 -74 0
-32 -69 -73 74 0
-2 -26 -89 0
-32 -69 73 -74 0
69 73 74 0
69 -73 -74 0
32 73 74 0
74 102 0
-5 -17 -21 34 -36 -39 -43 -47 -51 -55 -59 -63 -66 -68 -70 -72 -74 -76 -78 -80 -82 -84 -86 -88 -90 -92 -93 -94 -96 97 98 99 100 -101 -102 0
26 31 0
38 -75 -76 0
-38 -69 -75 76 0
5 27 -91 0
-38 -69 75 -76 0
69 75 76 0
69 -75 -76 0
38 75 76 0
91 113 141 142 0
76 102 0
5 -17 -21 34 -36 -39 -43 -47 -51 -55 -59 -63 -66 -68 -70 -72 -74 -76 -78 -80 -82 -84 -86 -88 -90 -92 -94 -96 97 98 99 100 101 -102 0
-5 -27 -91 0
45 -77 -78 0
-45 -69 -77 78 0
5 -27 91 0
-45 -69 77 -78 0
69 77 78 0
69 -77 -78 0
45 77 78 0
78 102 0
-34 102 0
9 29 -93 0
17 -79 -80 0
-17 -21 -79 80 0
21 133 134 0
-17 -21 79 -80 0
17 133 134 0
17 -133 -134 0
-17 -21 -133 134 0
64 91 -113 142 0
80 102 0
-17 -21 60 -133 0
-9 29 93 0
12 -81 -82 0
-12 -79 -81 82 0
-9 -29 -93 0
-12 -79 81 -82 0
79 81 82 0
79 -81 -82 0
12 81 82 0
82 102 0
-12 19 -79 -81 0
29 31 0
32 -83 -84 0
-32 -79 -83 84 0
-30 91 -95 0
-32 -79 83 -84 0
79 83 84 0
79 -83 -84 0
32 83 84 0
84 102 0
-19 79 -81 0
-30 -91 -93 95 0
38 -85 -86 0
-38 -79 -85 86 0
30 93 95 0
-38 -79 85 -86 0
79 85 86 0
79 -85 -86 0
38 85 86 0
86 102 0
9 -109 -110 0
30 91 95 0
45 -87 -88 0
-45 -79 -87 88 0
30 31 0
-45 -79 87 -88 0
79 87 88 0
79 -87 -88 0
45 87 88 0
88 102 0
22 -32 -79 -83 0
-17 31 -97 0
2 -89 90 0
-2 89 90 0
-2 -89 -90 0
2 89 -90 0
90 102 0
-22 79 -83 0
21 -60 -133 0
5 -91 92 0
-5 91 92 0
-5 -91 -92 0
5 91 -92 0
92 102 0
-23 38 -85 0
9 -93 94 0
-9 93 94 0
-9 -93 -94 0
9 93 -94 0
94 102 0
23 79 85 0
-21 31 -98 0
91 -95 -96 0
-91 -93 -95 96 0
5 31 -101 0
-91 -93 95 -96 0
93 95 96 0
93 -95 -96 0
91 95 96 0
96 102 0
23 31 0
31 93 -101 0
17 97 102 0
-25 79 -87 0
25 -45 -79 -87 0
-17 -97 102 0
31 99 -100 0
31 -33 -40 -42 -44 -46 -48 -50 -52 -54 -56 -58 -60 -62 -64 99 -101 103 107 109 111 -133 -137 138 139 140 0
21 98 102 0
2 26 -89 0
2 -26 89 0
31 -97 -98 99 0
-5 27 91 0
-5 31 -93 101 0
9 -29 93 0
27 31 0
30 -91 -93 -95 0
21 -133 -134 0
-30 93 -95 0
-9 33 -91 -105 0
-97 -98 99 102 0
31 -33 -37 -40 -42 -44 -46 -48 -50 -52 -54 -56 -58 -60 -62 -64 99 103 -105 107 111 -133 137 -138 139 140 0
-95 -99 100 102 0
97 -99 102 0
21 31 98 0
17 31 97 0
-21 -98 102 0
95 -100 102 0
-9 -33 -91 105 0
5 -101 102 0
98 -99 102 0
33 91 105 0
93 -101 102 0
-5 -93 101 102 0
9 33 105 0
99 -100 102 0
9 -33 -105 0
-33 91 -105 0
99 -103 -104 0
-99 -101 -103 104 0
33 64 0
-99 -101 103 -104 0
101 103 104 0
101 -103 -104 0
99 103 104 0
104 141 0
-6 21 -69 0
9 -105 -106 0
-9 -91 -105 106 0
-9 -91 105 -106 0
91 105 106 0
91 -105 -106 0
9 105 106 0
106 141 0
-101 102 -109 -110 0
99 -107 -108 0
-99 -105 -107 108 0
-99 -105 107 -108 0
105 107 108 0
105 -107 -108 0
99 107 108 0
108 141 0
7 69 71 0
31 -33 -37 -40 -42 -44 -46 -48 -50 -52 -54 -56 -58 -60 -62 -64 99 101 103 105 107 109 111 137 138 139 140 0
-5 -9 109 -110 0
9 45 47 0
9 -45 -47 0
5 45 47 0
110 141 0
5 -6 -7 -11 -13 -15 -17 -18 -19 21 -22 -23 -25 -26 -27 -29 -30 -31 97 -98 99 100 101 -143 -144 -145 -146 149 -151 -152 -153 -154 -155 -156 0
9 45 151 0
99 -111 -112 0
-99 -109 -111 112 0
9 -45 -151 0
-99 -109 111 -112 0
109 111 112 0
109 -111 -112 0
99 111 112 0
112 141 0
6 16 69 0
37 64 0
17 -113 -114 0
-17 -98 -113 114 0
-17 -98 113 -114 0
98 113 114 0
98 -113 -114 0
17 113 114 0
114 141 0
38 -65 -155 0
95 -115 -116 0
-95 -113 -115 116 0
-95 -113 115 -116 0
113 115 116 0
113 -115 -116 0
95 115 116 0
116 141 0
-7 -12 -69 71 0
101 -117 -118 0
-101 -113 -117 118 0
-101 -113 117 -118 0
113 117 118 0
113 -117 -118 0
101 117 118 0
118 141 0
-101 102 -104 -106 -108 109 -112 -114 -116 -118 -120 -122 -124 -126 -128 -130 -132 -133 -134 -136 -137 138 139 140 -141 0
-17 40 -98 -113 0
105 -119 -120 0
-105 -113 -119 120 0
-17 -40 -98 113 0
-105 -113 119 -120 0
113 119 120 0
113 -119 -120 0
105 119 120 0
120 141 0
6 31 0
-40 98 -113 0
109 -121 -122 0
-109 -113 -121 122 0
-109 -113 121 -122 0
113 121 122 0
113 -121 -122 0
109 121 122 0
122 141 0
102 -105 -106 -109 -110 0
-42 95 -115 0
21 -123 -124 0
-21 -97 -123 124 0
42 -95 -113 -115 0
-21 -97 123 -124 0
97 123 124 0
97 -123 -124 0
21 123 124 0
124 141 0
-7 12 -71 0
42 113 115 0
95 -125 -126 0
-95 -123 -125 126 0
-42 113 -115 0
-95 -123 125 -126 0
123 125 126 0
123 -125 -126 0
95 125 126 0
126 141 0
102 -104 -105 -106 -108 -110 -112 -114 -116 -118 -120 -122 -124 -126 -128 -130 -132 -133 -134 -136 137 -138 139 140 -141 0
42 64 0
101 -127 -128 0
-101 -123 -127 128 0
-44 101 -117 0
-101 -123 127 -128 0
123 127 128 0
123 -127 -128 0
101 127 128 0
128 141 0
7 -12 -69 -71 0
-44 -101 -113 117 0
105 -129 -130 0
-105 -123 -129 130 0
44 113 117 0
-105 -123 129 -130 0
123 129 130 0
123 -129 -130 0
105 129 130 0
130 141 0
102 -104 105 -108 -109 -110 -112 -114 -116 -118 -120 -122 -124 -126 -128 -130 -132 -133 -134 -136 137 138 -139 140 -141 0
44 101 117 0
109 -131 -132 0
-109 -123 -131 132 0
44 64 0
-109 -123 131 -132 0
123 131 132 0
123 -131 -132 0
109 131 132 0
132 141 0
12 57 153 0
-46 105 -119 0
-17 -21 133 -134 0
21 79 80 0
21 -79 -80 0
17 79 80 0
134 141 0
99 101 102 -104 105 -106 -108 109 -110 -112 -114 -116 -118 -120 -122 -124 -126 -128 -130 -132 -134 -136 137 138 139 140 -141 0
-46 -105 -113 119 0
95 -135 -136 0
-95 -133 -135 136 0
46 113 119 0
-95 -133 135 -136 0
133 135 136 0
133 -135 -136 0
95 135 136 0
136 141 0
-99 102 -104 -106 -108 -110 -112 -114 -116 -118 -120 -122 -124 -126 -128 -130 -132 133 -136 137 138 139 -140 -141 0
46 105 119 0
17 -40 -113 0
99 102 -104 -106 -108 -110 -112 -114 -116 -118 -120 -122 -124 -126 -128 -130 -132 133 -134 -136 137 138 139 140 -141 0
-102 141 0
-48 109 -121 0
31 -37 -101 -109 0
-5 -9 -37 109 0
45 -67 -154 0
-42 -95 -113 115 0
5 45 151 0
-44 113 -117 0
40 98 113 0
-45 -53 67 -154 0
6 -16 -21 -69 0
-5 -6 -7 -11 -13 -15 -17 -18 -19 21 -22 -23 -25 -26 -27 -29 -30 -31 -93 97 -98 99 100 -101 -143 -144 -145 -146 149 -151 -152 -153 -154 -155 -156 0
42 95 115 0
-6 -7 -11 -13 -15 17 -18 -19 -21 -22 -23 -25 -26 -27 -29 -30 -31 93 -97 98 99 100 101 -143 -144 -145 -146 149 -151 -152 -153 -154 -155 -156 0
44 -101 -113 -117 0
53 67 154 0
4 5 34 0
-45 -53 -67 154 0
48 -109 -113 -121 0
-46 113 -119 0
-6 16 -69 0
46 64 0
48 113 121 0
31 155 0
46 -105 -113 -119 0
48 109 121 0
-3 4 -5 -8 -10 -14 16 -17 20 -21 24 28 -32 -34 0
-48 -109 -113 121 0
40 64 0
-48 113 -121 0
-1 2 148 0
-4 -5 34 0
53 -67 -154 0
45 67 154 0
31 154 0
50 97 123 0
48 64 0
-21 -50 -97 123 0
-21 50 -97 -123 0
21 -50 -123 0
-50 97 -123 0
31 -33 -37 -105 -109 0
-52 95 -125 0
50 64 0
-52 -95 -123 125 0
52 -95 -123 -125 0
-52 123 -125 0
52 123 125 0
52 64 0
52 95 125 0
-54 101 -127 0
-54 -101 -123 127 0
54 -101 -123 -127 0
-54 123 -127 0
54 123 127 0
54 64 0
54 101 127 0
56 -105 -123 -129 0
-56 105 -129 0
56 123 129 0
56 105 129 0
-56 123 -129 0
-58 109 -131 0
-62 95 -135 0
-62 -95 -133 135 0
62 -95 -133 -135 0
-62 133 -135 0
62 133 135 0
62 64 0
4 5 149 0
31 -33 -37 -40 -42 -44 -46 -48 -50 -52 -54 -56 -58 -60 -62 -64 99 103 107 111 133 137 138 139 140 0
4 -5 -8 16 -17 20 -21 24 28 -32 -147 -148 -149 -150 0
-31 64 0
-4 -5 149 0
-56 -105 -123 129 0
62 95 135 0
-24 -45 49 -144 0
-24 -45 -49 144 0
17 -53 -143 0
24 -49 -144 0
-17 -20 -53 143 0
17 18 79 0
-18 21 -79 0
31 151 0
5 -37 -109 0
18 21 79 0
-5 -9 37 -109 0
-17 -21 -60 133 0
58 64 0
58 109 131 0
-17 -20 53 -143 0
-5 -6 -7 -11 -13 -15 17 -18 -19 21 -22 -23 -25 -26 -27 -29 -31 -93 95 -97 -98 -99 100 -101 -143 -144 -145 -146 149 -151 -152 -153 -154 -155 -156 0
-58 123 -131 0
31 152 0
-6 -7 -11 -13 -15 -17 -18 -19 -21 -22 -23 -25 -26 -27 -29 -30 -31 93 97 98 99 100 101 -143 -144 -145 -146 149 -151 -152 -153 -154 -155 -156 0
5 -45 -151 0
-58 -109 -123 131 0
5 37 109 0
58 123 131 0
58 -109 -123 -131 0
8 -32 149 0
5 -32 149 0
31 -37 -40 -42 -44 -46 -48 -50 -52 -54 -56 -58 -60 -62 -64 99 103 105 107 -109 111 -133 137 138 -139 140 0
-20 -21 149 0
5 -6 -7 -11 -13 -15 17 -18 -19 21 -22 -23 -25 -26 -29 -30 -31 -95 -97 -98 -99 -100 101 -143 -144 -145 -146 149 -151 -152 -153 -154 -155 -156 0
24 -41 -152 0
-24 -38 -41 152 0
9 37 109 0
-5 -8 32 149 0
31 146 0
4 -38 -145 0
-4 -9 -38 145 0
4 38 145 0
32 -35 -146 0
60 64 0
24 35 146 0
-4 -9 38 -145 0
9 38 145 0
9 -38 -145 0
24 -28 149 0
31 145 0
12 -28 149 0
38 41 152 0
38 -41 -152 0
24 41 152 0
56 64 0
-5 -9 45 -151 0
24 -35 -146 0
32 35 146 0
5 -12 -16 17 -20 21 -24 -28 32 -147 -148 -149 -150 0
20 -24 149 0
-24 -32 35 -146 0
148 149 0
-24 -32 -35 146 0
-11 32 -73 0
53 -57 -153 0
-11 -32 -69 73 0
7 12 71 0
20 53 143 0
7 31 0
11 -32 -69 -73 0
-91 113 141 -142 0
53 57 153 0
11 32 73 0
-11 69 -73 0
-6 -7 -11 -13 -15 -17 -18 -19 21 -22 -23 -25 -26 -27 -29 -30 -31 93 97 -98 99 100 101 -143 -144 -145 -146 149 -151 -152 -153 -154 -155 -156 0
20 -53 -143 0
11 69 73 0
-12 -53 57 -153 0
16 -24 149 0
24 49 144 0
-12 -24 28 149 0
45 -49 -144 0
31 144 0
45 49 144 0
-12 -53 -57 153 0
-5 -9 -45 151 0
-24 -38 41 -152 0
31 156 0
8 -12 -150 0
32 61 156 0
-4 5 8 -16 17 -20 21 -24 28 32 -147 -148 -149 -150 0
12 -57 -153 0
17 53 143 0
31 143 0
8 9 -147 0
-6 -16 -21 69 0
4 -5 8 -16 17 -20 21 -24 28 32 -147 -148 -149 -150 0
4 -12 -150 0
8 -9 147 0
-4 5 12 -16 17 -20 21 -24 28 32 -147 -148 -149 -150 0
1 -2 148 0
-8 -9 -147 0
16 17 149 0
1 2 -148 0
-32 -53 61 -156 0
-8 9 147 0
4 -5 -8 -16 17 20 -21 24 28 -32 -147 -148 -149 -150 0
-32 -53 -61 156 0
-1 -2 -148 0
-4 5 16 -17 -20 21 24 28 32 -147 -148 -149 -150 0
-4 5 16 -17 20 -21 24 28 32 -147 -148 -149 -150 0
149 150 0
8 12 150 0
53 61 156 0
147 149 0
20 21 149 0
-5 -6 -7 -11 -13 -15 17 -18 -19 -21 -22 -23 -25 -26 -27 -29 -30 -31 -93 -97 98 99 100 -101 -143 -144 -145 -146 149 -151 -152 -153 -154 -155 -156 0
32 -61 -156 0
4 -5 8 16 -17 20 -21 24 28 32 -147 -148 -149 -150 0
-16 -17 149 0
4 -5 -8 16 -17 -20 21 24 28 -32 -147 -148 -149 -150 0
4 -5 8 16 -17 -20 21 24 28 32 -147 -148 -149 -150 0
-4 5 -16 17 20 -21 24 28 32 -147 -148 -149 -150 0
-5 -8 12 -16 17 -20 21 -24 28 -32 -147 -148 -149 -150 0
4 12 150 0
-4 -8 -12 150 0
4 -5 8 -16 17 20 -21 24 28 32 -147 -148 -149 -150 0
-4 -8 12 -150 0
31 153 0
-16 -20 24 149 0
5 -6 -7 -11 -13 -15 17 -18 -19 -21 -22 -23 -25 -26 -27 -29 -30 -31 -97 98 99 100 101 -143 -144 -145 -146 149 -151 -152 -153 -154 -155 -156 0
53 -61 -156 0
